101
200
140	8
139	8
138	6
137	6
136	5
135	5
134	11
133	6
132	6
131	14
130	9
129	8
128	10
127	5
126	5
125	8
124	8
123	7
122	7
121	6
120	6
119	4
118	6
117	10
116	12
115	7
114	5
113	9
112	9
111	6
110	7
109	9
108	15
107	2
106	7
105	9
104	7
103	11
102	10
101	9
100	8
99	9
98	6
97	10
96	1
95	6
94	6
93	9
92	11
91	6
90	10
89	13
88	5
87	9
86	3
85	7
84	11
83	9
82	5
81	5
80	9
79	6
78	3
77	7
76	4
75	5
74	5
73	4
72	5
71	7
70	6
69	6
68	4
67	4
66	6
65	9
64	9
63	14
62	7
61	5
60	7
59	5
58	14
57	6
56	9
55	9
54	4
53	14
52	13
51	13
50	3
49	5
48	5
47	7
46	7
45	8
44	14
43	5
42	10
41	7
40	3
